p cnf 220 1320
-1 -101 0
-1 -102 0
101 -101 0
102 -102 0
-21 -107 0
-21 -108 0
107 -107 0
108 -108 0
-41 -113 0
-41 -114 0
113 -113 0
114 -114 0
-61 -119 0
-61 -120 0
119 -119 0
120 -120 0
-81 -125 0
-81 -126 0
125 -125 0
126 -126 0
2 -101 0
2 -102 0
101 -101 0
102 -102 0
22 -107 0
22 -108 0
107 -107 0
108 -108 0
42 -113 0
42 -114 0
113 -113 0
114 -114 0
62 -119 0
62 -120 0
119 -119 0
120 -120 0
82 -125 0
82 -126 0
125 -125 0
126 -126 0
3 -101 0
3 -102 0
101 -101 0
102 -102 0
23 -107 0
23 -108 0
107 -107 0
108 -108 0
43 -113 0
43 -114 0
113 -113 0
114 -114 0
63 -119 0
63 -120 0
119 -119 0
120 -120 0
83 -125 0
83 -126 0
125 -125 0
126 -126 0
4 -101 0
4 -102 0
101 -101 0
102 -102 0
24 -107 0
24 -108 0
107 -107 0
108 -108 0
44 -113 0
44 -114 0
113 -113 0
114 -114 0
64 -119 0
64 -120 0
119 -119 0
120 -120 0
84 -125 0
84 -126 0
125 -125 0
126 -126 0
-5 -101 0
-5 -102 0
101 -101 0
102 -102 0
-25 -107 0
-25 -108 0
107 -107 0
108 -108 0
-45 -113 0
-45 -114 0
113 -113 0
114 -114 0
-65 -119 0
-65 -120 0
119 -119 0
120 -120 0
-85 -125 0
-85 -126 0
125 -125 0
126 -126 0
6 -101 0
6 -102 0
101 -101 0
102 -102 0
26 -107 0
26 -108 0
107 -107 0
108 -108 0
46 -113 0
46 -114 0
113 -113 0
114 -114 0
66 -119 0
66 -120 0
119 -119 0
120 -120 0
86 -125 0
86 -126 0
125 -125 0
126 -126 0
7 -131 -101 0
-7 131 -101 0
7 131 -102 0
-7 -131 -102 0
27 -131 -107 0
-27 131 -107 0
27 131 -108 0
-27 -131 -108 0
47 -131 -113 0
-47 131 -113 0
47 131 -114 0
-47 -131 -114 0
67 -131 -119 0
-67 131 -119 0
67 131 -120 0
-67 -131 -120 0
87 -131 -125 0
-87 131 -125 0
87 131 -126 0
-87 -131 -126 0
8 -132 -101 0
-8 132 -101 0
8 132 -102 0
-8 -132 -102 0
28 -132 -107 0
-28 132 -107 0
28 132 -108 0
-28 -132 -108 0
48 -132 -113 0
-48 132 -113 0
48 132 -114 0
-48 -132 -114 0
68 -132 -119 0
-68 132 -119 0
68 132 -120 0
-68 -132 -120 0
88 -132 -125 0
-88 132 -125 0
88 132 -126 0
-88 -132 -126 0
9 -101 0
9 -102 0
101 -101 0
102 -102 0
29 -107 0
29 -108 0
107 -107 0
108 -108 0
49 -113 0
49 -114 0
113 -113 0
114 -114 0
69 -119 0
69 -120 0
119 -119 0
120 -120 0
89 -125 0
89 -126 0
125 -125 0
126 -126 0
10 -101 0
10 -102 0
101 -101 0
102 -102 0
30 -107 0
30 -108 0
107 -107 0
108 -108 0
50 -113 0
50 -114 0
113 -113 0
114 -114 0
70 -119 0
70 -120 0
119 -119 0
120 -120 0
90 -125 0
90 -126 0
125 -125 0
126 -126 0
11 -133 -101 0
-11 133 -101 0
11 133 -102 0
-11 -133 -102 0
31 -133 -107 0
-31 133 -107 0
31 133 -108 0
-31 -133 -108 0
51 -133 -113 0
-51 133 -113 0
51 133 -114 0
-51 -133 -114 0
71 -133 -119 0
-71 133 -119 0
71 133 -120 0
-71 -133 -120 0
91 -133 -125 0
-91 133 -125 0
91 133 -126 0
-91 -133 -126 0
12 -101 0
12 -102 0
101 -101 0
102 -102 0
32 -107 0
32 -108 0
107 -107 0
108 -108 0
52 -113 0
52 -114 0
113 -113 0
114 -114 0
72 -119 0
72 -120 0
119 -119 0
120 -120 0
92 -125 0
92 -126 0
125 -125 0
126 -126 0
13 -134 -101 0
-13 134 -101 0
13 134 -102 0
-13 -134 -102 0
33 -134 -107 0
-33 134 -107 0
33 134 -108 0
-33 -134 -108 0
53 -134 -113 0
-53 134 -113 0
53 134 -114 0
-53 -134 -114 0
73 -134 -119 0
-73 134 -119 0
73 134 -120 0
-73 -134 -120 0
93 -134 -125 0
-93 134 -125 0
93 134 -126 0
-93 -134 -126 0
14 -101 0
14 -102 0
101 -101 0
102 -102 0
34 -107 0
34 -108 0
107 -107 0
108 -108 0
54 -113 0
54 -114 0
113 -113 0
114 -114 0
74 -119 0
74 -120 0
119 -119 0
120 -120 0
94 -125 0
94 -126 0
125 -125 0
126 -126 0
15 -135 -101 0
-15 135 -101 0
15 135 -102 0
-15 -135 -102 0
35 -135 -107 0
-35 135 -107 0
35 135 -108 0
-35 -135 -108 0
55 -135 -113 0
-55 135 -113 0
55 135 -114 0
-55 -135 -114 0
75 -135 -119 0
-75 135 -119 0
75 135 -120 0
-75 -135 -120 0
95 -135 -125 0
-95 135 -125 0
95 135 -126 0
-95 -135 -126 0
16 -101 0
16 -102 0
101 -101 0
102 -102 0
36 -107 0
36 -108 0
107 -107 0
108 -108 0
56 -113 0
56 -114 0
113 -113 0
114 -114 0
76 -119 0
76 -120 0
119 -119 0
120 -120 0
96 -125 0
96 -126 0
125 -125 0
126 -126 0
17 -101 0
17 -102 0
101 -101 0
102 -102 0
37 -107 0
37 -108 0
107 -107 0
108 -108 0
57 -113 0
57 -114 0
113 -113 0
114 -114 0
77 -119 0
77 -120 0
119 -119 0
120 -120 0
97 -125 0
97 -126 0
125 -125 0
126 -126 0
-18 -101 0
-18 -102 0
101 -101 0
102 -102 0
-38 -107 0
-38 -108 0
107 -107 0
108 -108 0
-58 -113 0
-58 -114 0
113 -113 0
114 -114 0
-78 -119 0
-78 -120 0
119 -119 0
120 -120 0
-98 -125 0
-98 -126 0
125 -125 0
126 -126 0
19 -136 -101 0
-19 136 -101 0
19 136 -102 0
-19 -136 -102 0
39 -136 -107 0
-39 136 -107 0
39 136 -108 0
-39 -136 -108 0
59 -136 -113 0
-59 136 -113 0
59 136 -114 0
-59 -136 -114 0
79 -136 -119 0
-79 136 -119 0
79 136 -120 0
-79 -136 -120 0
99 -136 -125 0
-99 136 -125 0
99 136 -126 0
-99 -136 -126 0
20 -101 0
20 -102 0
101 -101 0
102 -102 0
40 -107 0
40 -108 0
107 -107 0
108 -108 0
60 -113 0
60 -114 0
113 -113 0
114 -114 0
80 -119 0
80 -120 0
119 -119 0
120 -120 0
100 -125 0
100 -126 0
125 -125 0
126 -126 0
-191 101 0
191 -101 0
-192 102 0
191 -102 0
-191 -101 0
-192 -102 0
-197 101 191 0
197 -101 0
197 -191 0
-198 102 192 0
198 -102 0
198 -192 0
-197 -107 0
-198 -108 0
-203 107 197 0
203 -107 0
203 -197 0
-204 108 198 0
204 -108 0
204 -198 0
-203 -113 0
-204 -114 0
-209 113 203 0
209 -113 0
209 -203 0
-210 114 204 0
210 -114 0
210 -204 0
-209 -119 0
-210 -120 0
-215 119 209 0
215 -119 0
215 -209 0
-216 120 210 0
216 -120 0
216 -210 0
-215 -125 0
-216 -126 0
215 0
216 0
-1 -103 0
-1 -104 0
103 -103 0
104 -104 0
-21 -109 0
-21 -110 0
109 -109 0
110 -110 0
-41 -115 0
-41 -116 0
115 -115 0
116 -116 0
-61 -121 0
-61 -122 0
121 -121 0
122 -122 0
-81 -127 0
-81 -128 0
127 -127 0
128 -128 0
2 -103 0
2 -104 0
103 -103 0
104 -104 0
22 -109 0
22 -110 0
109 -109 0
110 -110 0
42 -115 0
42 -116 0
115 -115 0
116 -116 0
62 -121 0
62 -122 0
121 -121 0
122 -122 0
82 -127 0
82 -128 0
127 -127 0
128 -128 0
3 -103 0
3 -104 0
103 -103 0
104 -104 0
23 -109 0
23 -110 0
109 -109 0
110 -110 0
43 -115 0
43 -116 0
115 -115 0
116 -116 0
63 -121 0
63 -122 0
121 -121 0
122 -122 0
83 -127 0
83 -128 0
127 -127 0
128 -128 0
4 -103 0
4 -104 0
103 -103 0
104 -104 0
24 -109 0
24 -110 0
109 -109 0
110 -110 0
44 -115 0
44 -116 0
115 -115 0
116 -116 0
64 -121 0
64 -122 0
121 -121 0
122 -122 0
84 -127 0
84 -128 0
127 -127 0
128 -128 0
5 -137 -103 0
-5 137 -103 0
5 137 -104 0
-5 -137 -104 0
25 -137 -109 0
-25 137 -109 0
25 137 -110 0
-25 -137 -110 0
45 -137 -115 0
-45 137 -115 0
45 137 -116 0
-45 -137 -116 0
65 -137 -121 0
-65 137 -121 0
65 137 -122 0
-65 -137 -122 0
85 -137 -127 0
-85 137 -127 0
85 137 -128 0
-85 -137 -128 0
6 -103 0
6 -104 0
103 -103 0
104 -104 0
26 -109 0
26 -110 0
109 -109 0
110 -110 0
46 -115 0
46 -116 0
115 -115 0
116 -116 0
66 -121 0
66 -122 0
121 -121 0
122 -122 0
86 -127 0
86 -128 0
127 -127 0
128 -128 0
7 -138 -103 0
-7 138 -103 0
7 138 -104 0
-7 -138 -104 0
27 -138 -109 0
-27 138 -109 0
27 138 -110 0
-27 -138 -110 0
47 -138 -115 0
-47 138 -115 0
47 138 -116 0
-47 -138 -116 0
67 -138 -121 0
-67 138 -121 0
67 138 -122 0
-67 -138 -122 0
87 -138 -127 0
-87 138 -127 0
87 138 -128 0
-87 -138 -128 0
8 -139 -103 0
-8 139 -103 0
8 139 -104 0
-8 -139 -104 0
28 -139 -109 0
-28 139 -109 0
28 139 -110 0
-28 -139 -110 0
48 -139 -115 0
-48 139 -115 0
48 139 -116 0
-48 -139 -116 0
68 -139 -121 0
-68 139 -121 0
68 139 -122 0
-68 -139 -122 0
88 -139 -127 0
-88 139 -127 0
88 139 -128 0
-88 -139 -128 0
9 -140 -103 0
-9 140 -103 0
9 140 -104 0
-9 -140 -104 0
29 -140 -109 0
-29 140 -109 0
29 140 -110 0
-29 -140 -110 0
49 -140 -115 0
-49 140 -115 0
49 140 -116 0
-49 -140 -116 0
69 -140 -121 0
-69 140 -121 0
69 140 -122 0
-69 -140 -122 0
89 -140 -127 0
-89 140 -127 0
89 140 -128 0
-89 -140 -128 0
10 -103 0
10 -104 0
103 -103 0
104 -104 0
30 -109 0
30 -110 0
109 -109 0
110 -110 0
50 -115 0
50 -116 0
115 -115 0
116 -116 0
70 -121 0
70 -122 0
121 -121 0
122 -122 0
90 -127 0
90 -128 0
127 -127 0
128 -128 0
11 -103 0
11 -104 0
103 -103 0
104 -104 0
31 -109 0
31 -110 0
109 -109 0
110 -110 0
51 -115 0
51 -116 0
115 -115 0
116 -116 0
71 -121 0
71 -122 0
121 -121 0
122 -122 0
91 -127 0
91 -128 0
127 -127 0
128 -128 0
12 -103 0
12 -104 0
103 -103 0
104 -104 0
32 -109 0
32 -110 0
109 -109 0
110 -110 0
52 -115 0
52 -116 0
115 -115 0
116 -116 0
72 -121 0
72 -122 0
121 -121 0
122 -122 0
92 -127 0
92 -128 0
127 -127 0
128 -128 0
13 -141 -103 0
-13 141 -103 0
13 141 -104 0
-13 -141 -104 0
33 -141 -109 0
-33 141 -109 0
33 141 -110 0
-33 -141 -110 0
53 -141 -115 0
-53 141 -115 0
53 141 -116 0
-53 -141 -116 0
73 -141 -121 0
-73 141 -121 0
73 141 -122 0
-73 -141 -122 0
93 -141 -127 0
-93 141 -127 0
93 141 -128 0
-93 -141 -128 0
14 -103 0
14 -104 0
103 -103 0
104 -104 0
34 -109 0
34 -110 0
109 -109 0
110 -110 0
54 -115 0
54 -116 0
115 -115 0
116 -116 0
74 -121 0
74 -122 0
121 -121 0
122 -122 0
94 -127 0
94 -128 0
127 -127 0
128 -128 0
15 -142 -103 0
-15 142 -103 0
15 142 -104 0
-15 -142 -104 0
35 -142 -109 0
-35 142 -109 0
35 142 -110 0
-35 -142 -110 0
55 -142 -115 0
-55 142 -115 0
55 142 -116 0
-55 -142 -116 0
75 -142 -121 0
-75 142 -121 0
75 142 -122 0
-75 -142 -122 0
95 -142 -127 0
-95 142 -127 0
95 142 -128 0
-95 -142 -128 0
16 -143 -103 0
-16 143 -103 0
16 143 -104 0
-16 -143 -104 0
36 -143 -109 0
-36 143 -109 0
36 143 -110 0
-36 -143 -110 0
56 -143 -115 0
-56 143 -115 0
56 143 -116 0
-56 -143 -116 0
76 -143 -121 0
-76 143 -121 0
76 143 -122 0
-76 -143 -122 0
96 -143 -127 0
-96 143 -127 0
96 143 -128 0
-96 -143 -128 0
17 -103 0
17 -104 0
103 -103 0
104 -104 0
37 -109 0
37 -110 0
109 -109 0
110 -110 0
57 -115 0
57 -116 0
115 -115 0
116 -116 0
77 -121 0
77 -122 0
121 -121 0
122 -122 0
97 -127 0
97 -128 0
127 -127 0
128 -128 0
18 -144 -103 0
-18 144 -103 0
18 144 -104 0
-18 -144 -104 0
38 -144 -109 0
-38 144 -109 0
38 144 -110 0
-38 -144 -110 0
58 -144 -115 0
-58 144 -115 0
58 144 -116 0
-58 -144 -116 0
78 -144 -121 0
-78 144 -121 0
78 144 -122 0
-78 -144 -122 0
98 -144 -127 0
-98 144 -127 0
98 144 -128 0
-98 -144 -128 0
19 -103 0
19 -104 0
103 -103 0
104 -104 0
39 -109 0
39 -110 0
109 -109 0
110 -110 0
59 -115 0
59 -116 0
115 -115 0
116 -116 0
79 -121 0
79 -122 0
121 -121 0
122 -122 0
99 -127 0
99 -128 0
127 -127 0
128 -128 0
20 -145 -103 0
-20 145 -103 0
20 145 -104 0
-20 -145 -104 0
40 -145 -109 0
-40 145 -109 0
40 145 -110 0
-40 -145 -110 0
60 -145 -115 0
-60 145 -115 0
60 145 -116 0
-60 -145 -116 0
80 -145 -121 0
-80 145 -121 0
80 145 -122 0
-80 -145 -122 0
100 -145 -127 0
-100 145 -127 0
100 145 -128 0
-100 -145 -128 0
-193 103 0
193 -103 0
-194 104 0
193 -104 0
-193 -103 0
-194 -104 0
-199 103 193 0
199 -103 0
199 -193 0
-200 104 194 0
200 -104 0
200 -194 0
-199 -109 0
-200 -110 0
-205 109 199 0
205 -109 0
205 -199 0
-206 110 200 0
206 -110 0
206 -200 0
-205 -115 0
-206 -116 0
-211 115 205 0
211 -115 0
211 -205 0
-212 116 206 0
212 -116 0
212 -206 0
-211 -121 0
-212 -122 0
-217 121 211 0
217 -121 0
217 -211 0
-218 122 212 0
218 -122 0
218 -212 0
-217 -127 0
-218 -128 0
217 0
218 0
1 -105 0
1 -106 0
105 -105 0
106 -106 0
21 -111 0
21 -112 0
111 -111 0
112 -112 0
41 -117 0
41 -118 0
117 -117 0
118 -118 0
61 -123 0
61 -124 0
123 -123 0
124 -124 0
81 -129 0
81 -130 0
129 -129 0
130 -130 0
2 -105 0
2 -106 0
105 -105 0
106 -106 0
22 -111 0
22 -112 0
111 -111 0
112 -112 0
42 -117 0
42 -118 0
117 -117 0
118 -118 0
62 -123 0
62 -124 0
123 -123 0
124 -124 0
82 -129 0
82 -130 0
129 -129 0
130 -130 0
3 -146 -105 0
-3 146 -105 0
3 146 -106 0
-3 -146 -106 0
23 -146 -111 0
-23 146 -111 0
23 146 -112 0
-23 -146 -112 0
43 -146 -117 0
-43 146 -117 0
43 146 -118 0
-43 -146 -118 0
63 -146 -123 0
-63 146 -123 0
63 146 -124 0
-63 -146 -124 0
83 -146 -129 0
-83 146 -129 0
83 146 -130 0
-83 -146 -130 0
4 -105 0
4 -106 0
105 -105 0
106 -106 0
24 -111 0
24 -112 0
111 -111 0
112 -112 0
44 -117 0
44 -118 0
117 -117 0
118 -118 0
64 -123 0
64 -124 0
123 -123 0
124 -124 0
84 -129 0
84 -130 0
129 -129 0
130 -130 0
5 -105 0
5 -106 0
105 -105 0
106 -106 0
25 -111 0
25 -112 0
111 -111 0
112 -112 0
45 -117 0
45 -118 0
117 -117 0
118 -118 0
65 -123 0
65 -124 0
123 -123 0
124 -124 0
85 -129 0
85 -130 0
129 -129 0
130 -130 0
6 -105 0
6 -106 0
105 -105 0
106 -106 0
26 -111 0
26 -112 0
111 -111 0
112 -112 0
46 -117 0
46 -118 0
117 -117 0
118 -118 0
66 -123 0
66 -124 0
123 -123 0
124 -124 0
86 -129 0
86 -130 0
129 -129 0
130 -130 0
-7 -105 0
-7 -106 0
105 -105 0
106 -106 0
-27 -111 0
-27 -112 0
111 -111 0
112 -112 0
-47 -117 0
-47 -118 0
117 -117 0
118 -118 0
-67 -123 0
-67 -124 0
123 -123 0
124 -124 0
-87 -129 0
-87 -130 0
129 -129 0
130 -130 0
8 -105 0
8 -106 0
105 -105 0
106 -106 0
28 -111 0
28 -112 0
111 -111 0
112 -112 0
48 -117 0
48 -118 0
117 -117 0
118 -118 0
68 -123 0
68 -124 0
123 -123 0
124 -124 0
88 -129 0
88 -130 0
129 -129 0
130 -130 0
9 -105 0
9 -106 0
105 -105 0
106 -106 0
29 -111 0
29 -112 0
111 -111 0
112 -112 0
49 -117 0
49 -118 0
117 -117 0
118 -118 0
69 -123 0
69 -124 0
123 -123 0
124 -124 0
89 -129 0
89 -130 0
129 -129 0
130 -130 0
10 -105 0
10 -106 0
105 -105 0
106 -106 0
30 -111 0
30 -112 0
111 -111 0
112 -112 0
50 -117 0
50 -118 0
117 -117 0
118 -118 0
70 -123 0
70 -124 0
123 -123 0
124 -124 0
90 -129 0
90 -130 0
129 -129 0
130 -130 0
-11 -105 0
-11 -106 0
105 -105 0
106 -106 0
-31 -111 0
-31 -112 0
111 -111 0
112 -112 0
-51 -117 0
-51 -118 0
117 -117 0
118 -118 0
-71 -123 0
-71 -124 0
123 -123 0
124 -124 0
-91 -129 0
-91 -130 0
129 -129 0
130 -130 0
12 -105 0
12 -106 0
105 -105 0
106 -106 0
32 -111 0
32 -112 0
111 -111 0
112 -112 0
52 -117 0
52 -118 0
117 -117 0
118 -118 0
72 -123 0
72 -124 0
123 -123 0
124 -124 0
92 -129 0
92 -130 0
129 -129 0
130 -130 0
13 -105 0
13 -106 0
105 -105 0
106 -106 0
33 -111 0
33 -112 0
111 -111 0
112 -112 0
53 -117 0
53 -118 0
117 -117 0
118 -118 0
73 -123 0
73 -124 0
123 -123 0
124 -124 0
93 -129 0
93 -130 0
129 -129 0
130 -130 0
14 -105 0
14 -106 0
105 -105 0
106 -106 0
34 -111 0
34 -112 0
111 -111 0
112 -112 0
54 -117 0
54 -118 0
117 -117 0
118 -118 0
74 -123 0
74 -124 0
123 -123 0
124 -124 0
94 -129 0
94 -130 0
129 -129 0
130 -130 0
15 -147 -105 0
-15 147 -105 0
15 147 -106 0
-15 -147 -106 0
35 -147 -111 0
-35 147 -111 0
35 147 -112 0
-35 -147 -112 0
55 -147 -117 0
-55 147 -117 0
55 147 -118 0
-55 -147 -118 0
75 -147 -123 0
-75 147 -123 0
75 147 -124 0
-75 -147 -124 0
95 -147 -129 0
-95 147 -129 0
95 147 -130 0
-95 -147 -130 0
16 -105 0
16 -106 0
105 -105 0
106 -106 0
36 -111 0
36 -112 0
111 -111 0
112 -112 0
56 -117 0
56 -118 0
117 -117 0
118 -118 0
76 -123 0
76 -124 0
123 -123 0
124 -124 0
96 -129 0
96 -130 0
129 -129 0
130 -130 0
17 -105 0
17 -106 0
105 -105 0
106 -106 0
37 -111 0
37 -112 0
111 -111 0
112 -112 0
57 -117 0
57 -118 0
117 -117 0
118 -118 0
77 -123 0
77 -124 0
123 -123 0
124 -124 0
97 -129 0
97 -130 0
129 -129 0
130 -130 0
18 -148 -105 0
-18 148 -105 0
18 148 -106 0
-18 -148 -106 0
38 -148 -111 0
-38 148 -111 0
38 148 -112 0
-38 -148 -112 0
58 -148 -117 0
-58 148 -117 0
58 148 -118 0
-58 -148 -118 0
78 -148 -123 0
-78 148 -123 0
78 148 -124 0
-78 -148 -124 0
98 -148 -129 0
-98 148 -129 0
98 148 -130 0
-98 -148 -130 0
19 -105 0
19 -106 0
105 -105 0
106 -106 0
39 -111 0
39 -112 0
111 -111 0
112 -112 0
59 -117 0
59 -118 0
117 -117 0
118 -118 0
79 -123 0
79 -124 0
123 -123 0
124 -124 0
99 -129 0
99 -130 0
129 -129 0
130 -130 0
20 -149 -105 0
-20 149 -105 0
20 149 -106 0
-20 -149 -106 0
40 -149 -111 0
-40 149 -111 0
40 149 -112 0
-40 -149 -112 0
60 -149 -117 0
-60 149 -117 0
60 149 -118 0
-60 -149 -118 0
80 -149 -123 0
-80 149 -123 0
80 149 -124 0
-80 -149 -124 0
100 -149 -129 0
-100 149 -129 0
100 149 -130 0
-100 -149 -130 0
-195 105 0
195 -105 0
-196 106 0
195 -106 0
-195 -105 0
-196 -106 0
-201 105 195 0
201 -105 0
201 -195 0
-202 106 196 0
202 -106 0
202 -196 0
-201 -111 0
-202 -112 0
-207 111 201 0
207 -111 0
207 -201 0
-208 112 202 0
208 -112 0
208 -202 0
-207 -117 0
-208 -118 0
-213 117 207 0
213 -117 0
213 -207 0
-214 118 208 0
214 -118 0
214 -208 0
-213 -123 0
-214 -124 0
-219 123 213 0
219 -123 0
219 -213 0
-220 124 214 0
220 -124 0
220 -214 0
-219 -129 0
-220 -130 0
219 0
220 0
